
Gurobi 9.1.2 (linux64, gurobi_cl) logging started Thu Nov  4 18:50:29 2021


Gurobi 9.1.2 (linux64, gurobi_cl) logging started Thu Nov  4 18:50:36 2021


Gurobi 9.1.2 (linux64, gurobi_cl) logging started Thu Nov  4 18:52:50 2021


Gurobi 9.1.2 (linux64, gurobi_cl) logging started Thu Nov  4 18:52:54 2021

